c Random Network
p max    10      20
n         1  s
n        10  t
a       4       1      40
a       5       9      35
a       3       7      15
a       9       8      13
a       6       1      13
a       5      10      45
a       1       3      22
a       7      10      16
a       7       5      34
a       7       6      44
a       7       1      18
a       1       4      35
a       2       7      26
a       7       4       2
a       8       5      37
a      10       6      15
a       7       9      21
a      10       9      13
a       6       4      35
a       2       5      43
